min: c;

c = 3.77518131959164 * u5_t4_h2 + 3.77518131959164 * u5_t7_h2 + 3.18633693088543 * u5_t4_h3 + 3.18633693088543 * u5_t7_h3 + 3.51893900213272 * u5_t1_h4 + 3.51893900213272 * u5_t3_h4 + 3.51893900213272 * u5_t4_h4 + 3.51893900213272 * u5_t7_h4 + 3.23091888701609 * u5_t1_h5 + 3.23091888701609 * u5_t3_h5 + 3.23091888701609 * u5_t4_h5 + 3.23091888701609 * u5_t7_h5 + 3.80439804722484 * u5_t1_h6 + 3.80439804722484 * u5_t3_h6 + 3.80439804722484 * u5_t4_h6 + 3.80439804722484 * u5_t6_h6 + 3.80439804722484 * u5_t7_h6 + 4.15113786639136 * u5_t1_h7 + 4.15113786639136 * u5_t3_h7 + 4.15113786639136 * u5_t4_h7 + 4.15113786639136 * u5_t6_h7 + 5.10695160637244 * u5_t1_h8 + 5.10695160637244 * u5_t3_h8 + 5.10695160637244 * u5_t4_h8 + 5.10695160637244 * u5_t6_h8 + 4.74002297037331 * u5_t1_h9 + 4.74002297037331 * u5_t3_h9 + 4.74002297037331 * u5_t4_h9 + 4.74002297037331 * u5_t6_h9 + 5.27659808020211 * u5_t1_h10 + 5.27659808020211 * u5_t3_h10 + 5.27659808020211 * u5_t4_h10 + 5.27659808020211 * u5_t6_h10 + 4.04781415506191 * u5_t1_h11 + 4.04781415506191 * u5_t3_h11 + 4.04781415506191 * u5_t4_h11 + 4.04781415506191 * u5_t6_h11 + 6.15898041469568 * u5_t1_h12 + 6.15898041469568 * u5_t3_h12 + 6.15898041469568 * u5_t4_h12 + 6.15898041469568 * u5_t6_h12 + 4.59539717063176 * u5_t1_h13 + 4.59539717063176 * u5_t3_h13 + 4.59539717063176 * u5_t4_h13 + 4.59539717063176 * u5_t6_h13 + 4.59539717063176 * u5_t8_h13 + 5.87413479368636 * u5_t1_h14 + 5.87413479368636 * u5_t3_h14 + 5.87413479368636 * u5_t4_h14 + 5.87413479368636 * u5_t6_h14 + 5.87413479368636 * u5_t8_h14 + 5.79268295623399 * u5_t1_h15 + 5.79268295623399 * u5_t3_h15 + 5.79268295623399 * u5_t4_h15 + 5.79268295623399 * u5_t6_h15 + 5.79268295623399 * u5_t8_h15 + 5.79268295623399 * u5_t9_h15 + 5.48859205119102 * u5_t1_h16 + 5.48859205119102 * u5_t3_h16 + 5.48859205119102 * u5_t4_h16 + 5.48859205119102 * u5_t5_h16 + 5.48859205119102 * u5_t6_h16 + 5.48859205119102 * u5_t8_h16 + 5.48859205119102 * u5_t9_h16 + 6.59080911853294 * u5_t1_h17 + 6.59080911853294 * u5_t5_h17 + 6.59080911853294 * u5_t6_h17 + 6.59080911853294 * u5_t8_h17 + 6.59080911853294 * u5_t9_h17 + 6.59080911853294 * u5_t10_h17 + 6.1123845143503 * u5_t1_h18 + 6.1123845143503 * u5_t2_h18 + 6.1123845143503 * u5_t5_h18 + 6.1123845143503 * u5_t6_h18 + 6.1123845143503 * u5_t9_h18 + 6.1123845143503 * u5_t10_h18 + 5.52835571347566 * u5_t1_h19 + 5.52835571347566 * u5_t2_h19 + 5.52835571347566 * u5_t5_h19 + 5.52835571347566 * u5_t9_h19 + 5.52835571347566 * u5_t10_h19 + 5.15056000969758 * u5_t1_h20 + 5.15056000969758 * u5_t2_h20 + 5.15056000969758 * u5_t5_h20 + 5.15056000969758 * u5_t9_h20 + 5.15056000969758 * u5_t10_h20 + 4.84073788949785 * u5_t2_h21 + 4.84073788949785 * u5_t5_h21 + 4.84073788949785 * u5_t9_h21 + 4.84073788949785 * u5_t10_h21 + 6.05679210902429 * u5_t2_h22 + 6.05679210902429 * u5_t5_h22 + 6.05679210902429 * u5_t9_h22 + 6.05679210902429 * u5_t10_h22 + 5.78778752944181 * u5_t5_h23 + 5.78778752944181 * u5_t9_h23 + 5.78778752944181 * u5_t10_h23;
0 <= u5_t1_h4 <= 1;
0 <= u5_t1_h5 <= 1;
0 <= u5_t1_h6 <= 1;
0 <= u5_t1_h7 <= 1;
0 <= u5_t1_h8 <= 1;
0 <= u5_t1_h9 <= 1;
0 <= u5_t1_h10 <= 1;
0 <= u5_t1_h11 <= 1;
0 <= u5_t1_h12 <= 1;
0 <= u5_t1_h13 <= 1;
0 <= u5_t1_h14 <= 1;
0 <= u5_t1_h15 <= 1;
0 <= u5_t1_h16 <= 1;
0 <= u5_t1_h17 <= 1;
0 <= u5_t1_h18 <= 1;
0 <= u5_t1_h19 <= 1;
0 <= u5_t1_h20 <= 1;
u5_t1_h4 + u5_t1_h5 + u5_t1_h6 + u5_t1_h7 + u5_t1_h8 + u5_t1_h9 + u5_t1_h10 + u5_t1_h11 + u5_t1_h12 + u5_t1_h13 + u5_t1_h14 + u5_t1_h15 + u5_t1_h16 + u5_t1_h17 + u5_t1_h18 + u5_t1_h19 + u5_t1_h20 = 1;
0 <= u5_t2_h18 <= 1;
0 <= u5_t2_h19 <= 1;
0 <= u5_t2_h20 <= 1;
0 <= u5_t2_h21 <= 1;
0 <= u5_t2_h22 <= 1;
u5_t2_h18 + u5_t2_h19 + u5_t2_h20 + u5_t2_h21 + u5_t2_h22 = 3;
0 <= u5_t3_h4 <= 1;
0 <= u5_t3_h5 <= 1;
0 <= u5_t3_h6 <= 1;
0 <= u5_t3_h7 <= 1;
0 <= u5_t3_h8 <= 1;
0 <= u5_t3_h9 <= 1;
0 <= u5_t3_h10 <= 1;
0 <= u5_t3_h11 <= 1;
0 <= u5_t3_h12 <= 1;
0 <= u5_t3_h13 <= 1;
0 <= u5_t3_h14 <= 1;
0 <= u5_t3_h15 <= 1;
0 <= u5_t3_h16 <= 1;
u5_t3_h4 + u5_t3_h5 + u5_t3_h6 + u5_t3_h7 + u5_t3_h8 + u5_t3_h9 + u5_t3_h10 + u5_t3_h11 + u5_t3_h12 + u5_t3_h13 + u5_t3_h14 + u5_t3_h15 + u5_t3_h16 = 1;
0 <= u5_t4_h2 <= 1;
0 <= u5_t4_h3 <= 1;
0 <= u5_t4_h4 <= 1;
0 <= u5_t4_h5 <= 1;
0 <= u5_t4_h6 <= 1;
0 <= u5_t4_h7 <= 1;
0 <= u5_t4_h8 <= 1;
0 <= u5_t4_h9 <= 1;
0 <= u5_t4_h10 <= 1;
0 <= u5_t4_h11 <= 1;
0 <= u5_t4_h12 <= 1;
0 <= u5_t4_h13 <= 1;
0 <= u5_t4_h14 <= 1;
0 <= u5_t4_h15 <= 1;
0 <= u5_t4_h16 <= 1;
u5_t4_h2 + u5_t4_h3 + u5_t4_h4 + u5_t4_h5 + u5_t4_h6 + u5_t4_h7 + u5_t4_h8 + u5_t4_h9 + u5_t4_h10 + u5_t4_h11 + u5_t4_h12 + u5_t4_h13 + u5_t4_h14 + u5_t4_h15 + u5_t4_h16 = 3;
0 <= u5_t5_h16 <= 1;
0 <= u5_t5_h17 <= 1;
0 <= u5_t5_h18 <= 1;
0 <= u5_t5_h19 <= 1;
0 <= u5_t5_h20 <= 1;
0 <= u5_t5_h21 <= 1;
0 <= u5_t5_h22 <= 1;
0 <= u5_t5_h23 <= 1;
u5_t5_h16 + u5_t5_h17 + u5_t5_h18 + u5_t5_h19 + u5_t5_h20 + u5_t5_h21 + u5_t5_h22 + u5_t5_h23 = 2;
0 <= u5_t6_h6 <= 1;
0 <= u5_t6_h7 <= 1;
0 <= u5_t6_h8 <= 1;
0 <= u5_t6_h9 <= 1;
0 <= u5_t6_h10 <= 1;
0 <= u5_t6_h11 <= 1;
0 <= u5_t6_h12 <= 1;
0 <= u5_t6_h13 <= 1;
0 <= u5_t6_h14 <= 1;
0 <= u5_t6_h15 <= 1;
0 <= u5_t6_h16 <= 1;
0 <= u5_t6_h17 <= 1;
0 <= u5_t6_h18 <= 1;
u5_t6_h6 + u5_t6_h7 + u5_t6_h8 + u5_t6_h9 + u5_t6_h10 + u5_t6_h11 + u5_t6_h12 + u5_t6_h13 + u5_t6_h14 + u5_t6_h15 + u5_t6_h16 + u5_t6_h17 + u5_t6_h18 = 2;
0 <= u5_t7_h2 <= 1;
0 <= u5_t7_h3 <= 1;
0 <= u5_t7_h4 <= 1;
0 <= u5_t7_h5 <= 1;
0 <= u5_t7_h6 <= 1;
u5_t7_h2 + u5_t7_h3 + u5_t7_h4 + u5_t7_h5 + u5_t7_h6 = 1;
0 <= u5_t8_h13 <= 1;
0 <= u5_t8_h14 <= 1;
0 <= u5_t8_h15 <= 1;
0 <= u5_t8_h16 <= 1;
0 <= u5_t8_h17 <= 1;
u5_t8_h13 + u5_t8_h14 + u5_t8_h15 + u5_t8_h16 + u5_t8_h17 = 3;
0 <= u5_t9_h15 <= 1;
0 <= u5_t9_h16 <= 1;
0 <= u5_t9_h17 <= 1;
0 <= u5_t9_h18 <= 1;
0 <= u5_t9_h19 <= 1;
0 <= u5_t9_h20 <= 1;
0 <= u5_t9_h21 <= 1;
0 <= u5_t9_h22 <= 1;
0 <= u5_t9_h23 <= 1;
u5_t9_h15 + u5_t9_h16 + u5_t9_h17 + u5_t9_h18 + u5_t9_h19 + u5_t9_h20 + u5_t9_h21 + u5_t9_h22 + u5_t9_h23 = 1;
0 <= u5_t10_h17 <= 1;
0 <= u5_t10_h18 <= 1;
0 <= u5_t10_h19 <= 1;
0 <= u5_t10_h20 <= 1;
0 <= u5_t10_h21 <= 1;
0 <= u5_t10_h22 <= 1;
0 <= u5_t10_h23 <= 1;
u5_t10_h17 + u5_t10_h18 + u5_t10_h19 + u5_t10_h20 + u5_t10_h21 + u5_t10_h22 + u5_t10_h23 = 1;
